Minimize
	value: tt

Subject to
tt + 2000 s_1_1 > 0
tt - t_1_1 - 2000.000000 s_1_1 > -1983.123300
tt + 2000 s_2_1 > 0
tt - t_2_1 - 2000.000000 s_2_1 > -1988.516500
tt + 2000 s_1_2 > 0
tt - t_1_2 - 2000.000000 s_1_2 > -1992.871400
tt + 2000 s_2_2 > 0
tt - t_2_2 - 2000.000000 s_2_2 > -1995.661800
tt + 2000 s_1_3 > 0
tt - t_1_3 - 2000.000000 s_1_3 > -1969.540300
tt + 2000 s_2_3 > 0
tt - t_2_3 - 2000.000000 s_2_3 > -1981.090000
tt + 2000 s_1_4 > 0
tt - t_1_4 - 2000.000000 s_1_4 > -1988.019100
tt + 2000 s_2_4 > 0
tt - t_2_4 - 2000.000000 s_2_4 > -1993.326700
tt + 2000 s_1_5 > 0
tt - t_1_5 - 2070.714880 s_1_5 + 70.714880 s_1_1 > -1999.122556
tt + 2000 s_2_5 > 0
tt - t_2_5 - 2141.429760 s_2_5 + 141.429760 s_2_1 > -1997.933900
s_1_1 + s_2_1  = 1
s_1_2 + s_2_2  = 1
s_1_3 + s_2_3  = 1
s_1_4 + s_2_4  = 1
s_1_5 + s_2_5  = 1
t_1_1 - t_1_2 + 2000.000000 u_1_1_2 > 7.128600
t_1_2 - t_1_1 - 2000.000000 u_1_1_2 > -1983.123300
t_2_1 - t_2_2 + 2000.000000 u_2_1_2 > 4.338200
t_2_2 - t_2_1 - 2000.000000 u_2_1_2 > -1988.516500
t_1_1 - t_1_3 + 2000.000000 u_1_1_3 > 30.459700
t_1_3 - t_1_1 - 2000.000000 u_1_1_3 > -1983.123300
t_2_1 - t_2_3 + 2000.000000 u_2_1_3 > 18.910000
t_2_3 - t_2_1 - 2000.000000 u_2_1_3 > -1988.516500
t_1_1 - t_1_4 + 2000.000000 u_1_1_4 > 11.980900
t_1_4 - t_1_1 - 2000.000000 u_1_1_4 > -1983.123300
t_2_1 - t_2_4 + 2000.000000 u_2_1_4 > 6.673300
t_2_4 - t_2_1 - 2000.000000 u_2_1_4 > -1988.516500
t_1_5 - t_1_1 - 2000.000000 s_1_1 > -1975.702430
t_1_5 - t_2_1 - 2000.000000 s_2_1 > -1973.674760
t_2_5 - t_1_1 - 2000.000000 s_1_1 > -1975.702430
t_2_5 - t_2_1 - 2000.000000 s_2_1 > -1973.674760
t_1_2 - t_1_1 + 2000.000000 u_1_2_1 > 16.876700
t_1_1 - t_1_2 - 2000.000000 u_1_2_1 > -1992.871400
t_2_2 - t_2_1 + 2000.000000 u_2_2_1 > 11.483500
t_2_1 - t_2_2 - 2000.000000 u_2_2_1 > -1995.661800
t_1_2 - t_1_3 + 2000.000000 u_1_2_3 > 30.459700
t_1_3 - t_1_2 - 2000.000000 u_1_2_3 > -1992.871400
t_2_2 - t_2_3 + 2000.000000 u_2_2_3 > 18.910000
t_2_3 - t_2_2 - 2000.000000 u_2_2_3 > -1995.661800
t_1_2 - t_1_4 + 2000.000000 u_1_2_4 > 11.980900
t_1_4 - t_1_2 - 2000.000000 u_1_2_4 > -1992.871400
t_2_2 - t_2_4 + 2000.000000 u_2_2_4 > 6.673300
t_2_4 - t_2_2 - 2000.000000 u_2_2_4 > -1995.661800
t_1_5 - t_1_2 - 2000.000000 s_1_2 > -1985.450530
t_1_5 - t_2_2 - 2000.000000 s_2_2 > -1980.820060
t_2_5 - t_1_2 - 2000.000000 s_1_2 > -1985.450530
t_2_5 - t_2_2 - 2000.000000 s_2_2 > -1980.820060
t_1_3 - t_1_1 + 2000.000000 u_1_3_1 > 16.876700
t_1_1 - t_1_3 - 2000.000000 u_1_3_1 > -1969.540300
t_2_3 - t_2_1 + 2000.000000 u_2_3_1 > 11.483500
t_2_1 - t_2_3 - 2000.000000 u_2_3_1 > -1981.090000
t_1_3 - t_1_2 + 2000.000000 u_1_3_2 > 7.128600
t_1_2 - t_1_3 - 2000.000000 u_1_3_2 > -1969.540300
t_2_3 - t_2_2 + 2000.000000 u_2_3_2 > 4.338200
t_2_2 - t_2_3 - 2000.000000 u_2_3_2 > -1981.090000
t_1_3 - t_1_4 + 2000.000000 u_1_3_4 > 11.980900
t_1_4 - t_1_3 - 2000.000000 u_1_3_4 > -1969.540300
t_2_3 - t_2_4 + 2000.000000 u_2_3_4 > 6.673300
t_2_4 - t_2_3 - 2000.000000 u_2_3_4 > -1981.090000
t_1_5 - t_1_3 - 2000.000000 s_1_3 > -1962.119430
t_1_5 - t_2_3 - 2000.000000 s_2_3 > -1966.248260
t_2_5 - t_1_3 - 2000.000000 s_1_3 > -1962.119430
t_2_5 - t_2_3 - 2000.000000 s_2_3 > -1966.248260
t_1_4 - t_1_1 + 2000.000000 u_1_4_1 > 16.876700
t_1_1 - t_1_4 - 2000.000000 u_1_4_1 > -1988.019100
t_2_4 - t_2_1 + 2000.000000 u_2_4_1 > 11.483500
t_2_1 - t_2_4 - 2000.000000 u_2_4_1 > -1993.326700
t_1_4 - t_1_2 + 2000.000000 u_1_4_2 > 7.128600
t_1_2 - t_1_4 - 2000.000000 u_1_4_2 > -1988.019100
t_2_4 - t_2_2 + 2000.000000 u_2_4_2 > 4.338200
t_2_2 - t_2_4 - 2000.000000 u_2_4_2 > -1993.326700
t_1_4 - t_1_3 + 2000.000000 u_1_4_3 > 30.459700
t_1_3 - t_1_4 - 2000.000000 u_1_4_3 > -1988.019100
t_2_4 - t_2_3 + 2000.000000 u_2_4_3 > 18.910000
t_2_3 - t_2_4 - 2000.000000 u_2_4_3 > -1993.326700
t_1_5 - t_1_4 - 2000.000000 s_1_4 > -1980.598230
t_1_5 - t_2_4 - 2000.000000 s_2_4 > -1978.484960
t_2_5 - t_1_4 - 2000.000000 s_1_4 > -1980.598230
t_2_5 - t_2_4 - 2000.000000 s_2_4 > -1978.484960
t_1_5 - t_1_1 - 2000.000000 s_1_1 > -1975.702430
t_1_5 - t_2_1 - 2000.000000 s_2_1 > -1973.674760
t_2_5 - t_1_1 - 2000.000000 s_1_1 > -1975.702430
t_2_5 - t_2_1 - 2000.000000 s_2_1 > -1973.674760
t_1_5 - t_1_2 - 2000.000000 s_1_2 > -1985.450530
t_1_5 - t_2_2 - 2000.000000 s_2_2 > -1980.820060
t_2_5 - t_1_2 - 2000.000000 s_1_2 > -1985.450530
t_2_5 - t_2_2 - 2000.000000 s_2_2 > -1980.820060
t_1_5 - t_1_3 - 2000.000000 s_1_3 > -1962.119430
t_1_5 - t_2_3 - 2000.000000 s_2_3 > -1966.248260
t_2_5 - t_1_3 - 2000.000000 s_1_3 > -1962.119430
t_2_5 - t_2_3 - 2000.000000 s_2_3 > -1966.248260
t_1_5 - t_1_4 - 2000.000000 s_1_4 > -1980.598230
t_1_5 - t_2_4 - 2000.000000 s_2_4 > -1978.484960
t_2_5 - t_1_4 - 2000.000000 s_1_4 > -1980.598230
t_2_5 - t_2_4 - 2000.000000 s_2_4 > -1978.484960
Binary
s_1_1
s_2_1
s_1_2
s_2_2
s_1_3
s_2_3
s_1_4
s_2_4
s_1_5
s_2_5
u_1_1_2
u_2_1_2
u_1_1_3
u_2_1_3
u_1_1_4
u_2_1_4
u_1_2_1
u_2_2_1
u_1_2_3
u_2_2_3
u_1_2_4
u_2_2_4
u_1_3_1
u_2_3_1
u_1_3_2
u_2_3_2
u_1_3_4
u_2_3_4
u_1_4_1
u_2_4_1
u_1_4_2
u_2_4_2
u_1_4_3
u_2_4_3

End
